c Output_time 26.03.2020 18:15:16_+0100 1585242916628727082
c ** Program information **
c program_name                          "QBRG_debug"
c version                               "0.3.20"
c date                                  "25.3.2020"
c gid_id                                "673970833836058123f633335630c185360d632e"
c author                                "Oliver Kullmann"
c url                                   "https://github.com/OKullmann/oklibrary/blob/master/Satisfiability/Transformers/Generators/Random/QBRG.cpp"
c ** Machine information **
c machine_name                          "chyna-Lenovo-G50-70"
c bogomips                              3791.08
c ** Compilation information **
c compiler_version                      "g++ 7.5.0"
c compilation_date                      "Mar_26_2020 11:16:30"
c compilation_options                   "--std=c++17 -pedantic -fmax-errors=5 -Wall -Wextra -g -D_GLIBCXX_DEBUG"
c NDEBUG                                0
c OPTIMIZE                              0
c ** Parameters **
c command-line                          "./QBRG_debug" "a40 e40 a40 40" "353*1,1|2-2,1|3-3,1|4-4,1" "" "1,t" ""
c output                                "QuBlRaGe_160_353_1585242916628556457.qdimacs"
c options                               "filtered,renamed"
c num_quantifier_blocks                 4
c  quantifier_blocks                    1:a1-40 2:e41-80 3:a81-120 4:e121-160
c num_clause-blocks                     1
c  clause-blocks                        353 * {1-40,1,1/2} | {41-80,1,1/2} | {81-120,1,1/2} | {121-160,1,1/2}
c num_e-seeds                           37+2=39
c  e-seeds                              1 0 1 0 5 160 2 40 0 40 1 40 0 40 1 353 4 1 1 1 1 2 2 2 1 1 2 3 3 1 1 2 4 4 1 1 2 1 1585242916628555732
p cnf 160 353
a 1 2 3 4 5 6 7 8 9 10 11 12 13 14 15 16 17 18 19 20 21 22 23 24 25 26 27 28 29 30 31 32 33 34 35 36 37 38 39 40 0
e 41 42 43 44 45 46 47 48 49 50 51 52 53 54 55 56 57 58 59 60 61 62 63 64 65 66 67 68 69 70 71 72 73 74 75 76 77 78 79 80 0
a 81 82 83 84 85 86 87 88 89 90 91 92 93 94 95 96 97 98 99 100 101 102 103 104 105 106 107 108 109 110 111 112 113 114 115 116 117 118 119 120 0
e 121 122 123 124 125 126 127 128 129 130 131 132 133 134 135 136 137 138 139 140 141 142 143 144 145 146 147 148 149 150 151 152 153 154 155 156 157 158 159 160 0
-39 -80 -86 -121 0
20 55 90 -121 0
11 -61 -95 -121 0
-20 48 -110 -121 0
-36 71 -111 -121 0
-17 -46 88 121 0
-34 60 96 121 0
-1 -64 -90 -122 0
24 58 90 -122 0
-25 -75 112 -122 0
-29 -44 117 -122 0
-32 -54 -119 -122 0
-36 -53 -83 122 0
2 72 92 122 0
-3 -72 -87 -123 0
15 -62 94 -123 0
12 57 -100 -123 0
7 78 -102 -123 0
4 -74 102 -123 0
-12 -54 103 -123 0
-30 55 -88 123 0
15 -72 97 123 0
30 73 109 123 0
-9 -59 -120 123 0
32 50 83 -124 0
35 48 -85 -124 0
7 52 -86 -124 0
40 -67 98 -124 0
18 75 98 -124 0
16 -41 99 -124 0
19 80 -100 -124 0
28 55 104 -124 0
-13 -49 115 -124 0
10 -54 -86 124 0
-31 -49 87 124 0
-37 -46 94 124 0
22 -65 -103 124 0
-24 -53 113 124 0
1 68 -89 -125 0
-12 -78 116 -125 0
7 -77 -84 125 0
38 -61 -85 125 0
6 44 -89 125 0
-37 63 93 125 0
-34 46 115 125 0
28 50 -120 125 0
-14 -42 -98 -126 0
-9 -47 -117 -126 0
21 -69 -81 126 0
-38 56 -112 126 0
-2 64 120 126 0
-37 42 -81 -127 0
32 -46 86 -127 0
-13 75 90 -127 0
20 -56 109 -127 0
-4 -70 109 -127 0
-36 -74 110 -127 0
33 -74 111 -127 0
31 -80 -114 -127 0
-37 -52 -118 -127 0
-17 79 118 -127 0
-29 -77 -119 -127 0
2 -74 82 127 0
-27 -51 95 127 0
26 58 -84 -128 0
2 -77 85 -128 0
-35 61 -95 -128 0
-31 -78 -96 -128 0
7 44 -97 -128 0
32 -47 -98 -128 0
11 -67 -107 -128 0
17 -79 -114 -128 0
28 50 -119 -128 0
-17 -56 83 128 0
-2 46 96 128 0
14 49 -101 128 0
-39 79 -108 128 0
-14 -66 92 -129 0
-36 -67 -101 -129 0
-11 -58 111 -129 0
-14 -71 120 -129 0
26 43 -87 129 0
4 -63 -89 129 0
-39 -41 90 129 0
-18 55 -107 129 0
34 -61 -81 -130 0
-27 -54 101 -130 0
-26 69 105 -130 0
-36 74 109 -130 0
37 -42 113 -130 0
-6 58 -118 -130 0
-27 -68 -92 -131 0
25 -44 -98 -131 0
-3 64 -118 -131 0
-19 79 84 131 0
38 47 87 131 0
24 53 -116 131 0
32 55 -119 131 0
-38 -80 81 -132 0
7 -70 90 -132 0
-23 41 -92 -132 0
-32 66 -103 -132 0
-2 76 -114 -132 0
33 43 -116 -132 0
-31 70 -116 -132 0
28 -51 -111 132 0
-35 -64 -113 132 0
4 -55 88 -133 0
21 41 98 -133 0
27 80 -91 133 0
25 59 -95 133 0
33 68 -105 133 0
-16 62 113 133 0
-25 -68 -82 -134 0
-40 -46 85 -134 0
11 -57 85 -134 0
17 64 88 -134 0
1 -71 -103 -134 0
19 -58 108 134 0
14 72 95 -135 0
-2 -64 96 -135 0
38 -76 -116 -135 0
-32 -74 -88 135 0
19 45 -116 135 0
-34 73 91 -136 0
40 43 -102 -136 0
27 59 104 -136 0
-35 49 105 -136 0
15 -61 -106 -136 0
25 -77 -113 -136 0
-18 -80 -119 -136 0
-38 60 -82 136 0
6 -69 -83 136 0
-38 73 -94 136 0
-19 45 -100 136 0
-37 72 -101 136 0
-40 74 -104 136 0
35 72 -90 -137 0
19 -66 -84 137 0
25 71 84 137 0
32 67 114 137 0
-27 61 -95 -138 0
-4 48 99 -138 0
20 58 -118 -138 0
18 72 86 138 0
7 -62 88 138 0
29 -76 -89 138 0
-20 -71 92 138 0
10 72 106 138 0
-33 -73 -110 138 0
-33 80 113 138 0
-31 60 117 138 0
-21 -74 -86 -139 0
39 58 -87 -139 0
-14 61 -88 -139 0
-14 74 88 -139 0
32 -61 -105 -139 0
-17 71 107 -139 0
-4 -53 -85 139 0
-28 41 93 139 0
17 -76 95 139 0
10 71 -102 139 0
-13 55 -81 -140 0
-14 -48 -87 -140 0
25 78 81 140 0
-5 -77 82 140 0
-37 -75 83 140 0
39 -73 91 140 0
10 41 92 140 0
38 61 95 140 0
-5 -45 -102 140 0
24 66 -103 140 0
-37 66 -117 140 0
-10 -64 117 140 0
-23 74 -86 -141 0
16 56 87 -141 0
12 -63 92 -141 0
17 66 -111 141 0
22 -73 111 141 0
24 74 82 -142 0
-30 68 -97 -142 0
7 63 -106 -142 0
-6 67 110 -142 0
-16 48 117 -142 0
4 72 -118 -142 0
13 -80 -84 142 0
-32 74 96 142 0
22 -69 85 -143 0
27 -52 -91 -143 0
31 -70 -105 -143 0
27 -66 -115 -143 0
17 56 86 143 0
3 -63 -89 143 0
-1 -45 103 143 0
-20 66 103 143 0
-33 51 106 143 0
20 -73 -107 143 0
29 46 110 143 0
12 56 114 143 0
-33 53 82 -144 0
15 -54 -97 -144 0
4 48 -84 144 0
-25 -49 -88 144 0
-25 -41 -93 144 0
21 -53 -95 144 0
19 77 -118 144 0
16 -55 -96 -145 0
-4 48 -100 -145 0
-1 -78 -100 -145 0
-11 -62 -104 -145 0
37 -59 94 145 0
-35 42 -108 145 0
-3 -53 119 145 0
-17 44 97 -146 0
23 -48 113 -146 0
2 -79 115 -146 0
-35 41 -120 -146 0
31 -42 -94 146 0
4 62 -104 146 0
28 60 104 146 0
14 -45 -108 146 0
36 46 -110 146 0
38 -49 116 146 0
-21 -44 -120 146 0
10 -62 -107 -147 0
35 -51 112 -147 0
3 61 90 147 0
-6 -67 98 147 0
35 66 -109 147 0
-21 80 -81 -148 0
-19 42 -91 -148 0
27 -46 -100 -148 0
-33 56 -100 -148 0
-6 72 104 -148 0
27 44 -114 -148 0
-27 -51 116 -148 0
39 -61 118 -148 0
6 -51 -87 -149 0
31 -49 96 -149 0
-2 -57 96 -149 0
33 -50 -107 -149 0
28 54 115 -149 0
21 63 117 -149 0
26 78 -89 149 0
-22 -50 105 149 0
-18 -74 110 149 0
-14 75 -103 -150 0
8 51 -83 150 0
-10 64 85 150 0
25 53 92 150 0
19 -72 92 150 0
8 71 -98 150 0
16 -62 118 150 0
-22 -68 118 150 0
-16 79 -119 150 0
25 -78 83 -151 0
8 75 -104 -151 0
22 -78 105 -151 0
-24 -65 -108 -151 0
-13 74 112 -151 0
-23 -67 95 151 0
37 -68 105 151 0
-16 -60 112 151 0
-23 -56 -86 -152 0
-16 69 91 -152 0
20 -42 96 -152 0
32 -72 -107 -152 0
-40 -42 116 -152 0
24 69 -117 -152 0
8 -69 -102 152 0
-39 70 106 152 0
-3 70 -107 152 0
-4 -47 -108 152 0
-36 49 -119 152 0
37 -78 -100 -153 0
15 -75 108 -153 0
19 58 -118 -153 0
-8 48 116 153 0
34 65 -118 153 0
-20 -54 81 -154 0
-19 76 -98 -154 0
-33 -46 100 -154 0
-26 -59 100 -154 0
-17 -41 -101 -154 0
2 76 102 -154 0
11 -72 111 -154 0
-21 -55 -92 154 0
9 78 114 154 0
3 76 -120 154 0
23 -55 -89 -155 0
-28 67 -96 -155 0
-20 78 -97 -155 0
-16 -73 103 -155 0
16 -69 117 -155 0
19 79 81 155 0
-36 54 -82 155 0
14 61 -98 155 0
5 46 107 155 0
-23 -70 -106 -156 0
-36 -78 116 -156 0
-6 52 -91 156 0
-10 59 -113 156 0
-29 -43 83 -157 0
-9 55 83 -157 0
32 55 96 -157 0
29 -43 -105 -157 0
-17 -70 106 -157 0
-28 -62 108 -157 0
-27 48 112 -157 0
18 44 -82 157 0
34 41 83 157 0
1 75 -87 157 0
13 78 -100 157 0
18 -41 -106 157 0
-27 66 -107 157 0
-1 61 -110 157 0
21 55 82 -158 0
-6 68 84 -158 0
11 -75 93 -158 0
34 54 -94 -158 0
-4 57 -96 -158 0
22 66 -105 -158 0
-3 53 105 -158 0
9 -54 -107 -158 0
7 79 109 -158 0
1 75 112 -158 0
40 70 -118 -158 0
-5 71 -120 -158 0
28 -70 -84 158 0
-16 -66 92 158 0
-25 78 92 158 0
40 -74 -96 158 0
-7 42 117 158 0
-13 41 83 -159 0
22 66 -90 -159 0
-33 70 -93 -159 0
-16 46 97 -159 0
34 59 -101 -159 0
28 41 91 159 0
-32 48 94 159 0
19 65 104 159 0
18 -60 -111 159 0
-16 43 -114 159 0
34 -48 -87 -160 0
22 69 -88 -160 0
-24 -65 95 -160 0
24 77 -113 -160 0
18 -74 119 -160 0
-29 -68 -85 160 0
11 57 -89 160 0
7 55 -90 160 0
-7 59 -93 160 0
-3 80 -119 160 0
